/* Objective function */
min: tf ;

/* Restrições */
arco_02: t2 >= t0 + 4;
arco_23: t3 >= t2 + 7 + v2;
arco_i0: t0 >= ti + 0;
arco_04: t4 >= t0 + 4;
arco_42: t2 >= t4 + 9;
arco_53: t3 >= t5 + 4 + v5;
arco_3f: tf >= t3 + 2;
arco_45: t5 >= t4 + 9;
arco_5f: tf >= t5 + 4 + v5;
arco_i6: t6 >= ti + 0;
arco_64: t4 >= t7 + 5;
arco_85: t5 >= t8 + 4;
arco_9f: tf >= t9 + 2 + v9;
arco_68: t8 >= t7 + 5;
arco_89: t9 >= t8 + 4;
arco_610: t10 >= t6 + 5;
arco_108: t8 >= t10 + 8;
arco_119: t9 >= t11 + 7;
arco_1011: t11 >= t10 + 8;

t5 + 1000000 - 1000000 y25 + 1000000 v2 + 1000000 v5 >= t2 + 7;
t2 + 1000000 y25 + 1000000 v2 + 1000000 v5 >= t5 + 4;

t9 + 1000000 - 1000000 y29 + 1000000 v2 + 1000000 v9 >= t2 + 7;
t2 + 1000000 y29 + 1000000 v2 + 1000000 v9 >= t9 + 2;

t9 + 1000000 - 1000000 y59 + 1000000 v5 + 1000000 v9 >= t5 + 4;
t5 + 1000000 y59 + 1000000 v5 + 1000000 v9 >= t9 + 2 ;

y25 + y29 + y59 <= 1;
v2 + v5 + v9 <= 1;

Bin y25 y29 y59 v2 v5 v9;

